NAME: eilA76_25
COMMENT: 853.83
VEHICLE: 10
TIME: 111.4962
DIMENSION: 76
CAPACITY: 140
DELIVERY_SECTION
0 0 0
1 1 14
2 1 1.4
3 1 1.4
4 1 1.2
5 2 14
6 2 7
7 2 1.4
8 2 1.4
9 2 1.4
10 2 0.8
11 3 7
12 3 1.4
13 3 1.4
14 3 1.2
15 4 14
16 4 14
17 4 1.4
18 4 0.6
19 5 14
20 5 7
21 6 14
22 6 1.4
23 6 1.4
24 6 1.4
25 6 0.8
26 7 14
27 7 1
28 8 14
29 8 1.4
30 8 0.6
31 9 14
32 9 14
33 9 1
34 10 14
35 10 7
36 10 1.4
37 10 1.4
38 10 1.4
39 10 0.8
40 11 35
41 11 1.4
42 11 0.6
43 12 14
44 12 1.4
45 12 0.6
46 13 7
47 13 1.4
48 13 1.4
49 13 1.4
50 13 0.8
51 14 14
52 14 14
53 14 1.4
54 14 1.4
55 14 0.2
56 15 7
57 15 1
58 16 14
59 16 1.4
60 16 1.4
61 16 1.4
62 16 0.8
63 17 14
64 17 1.4
65 17 1.4
66 17 1.4
67 17 1.4
68 17 0.4
69 18 7
70 18 1.4
71 18 1.4
72 18 1.4
73 18 1.4
74 18 0.4
75 19 14
76 19 1
77 20 14
78 20 7
79 20 1
80 21 14
81 21 14
82 22 7
83 22 1.4
84 22 1.4
85 22 1.4
86 22 0.8
87 23 1.4
88 23 1.4
89 23 1.4
90 23 1.4
91 23 0.4
92 24 14
93 24 7
94 24 1.4
95 24 1.4
96 24 1.4
97 24 1.4
98 24 0.4
99 25 14
100 26 14
101 26 1.4
102 26 1.4
103 26 1.2
104 27 14
105 27 1.4
106 27 1.4
107 27 0.2
108 28 14
109 28 14
110 28 1
111 29 7
112 29 1.4
113 29 1.4
114 29 1.4
115 29 1.4
116 29 0.4
117 30 14
118 30 7
119 30 1
120 31 14
121 31 7
122 31 1.4
123 31 1.4
124 31 1.2
125 32 14
126 32 14
127 33 14
128 33 7
129 33 1.4
130 33 1.4
131 33 1.4
132 33 1.4
133 33 0.4
134 34 14
135 34 1.4
136 34 1.4
137 34 1.4
138 34 0.8
139 35 7
140 35 1.4
141 35 1.4
142 35 0.2
143 36 7
144 36 1.4
145 36 1.4
146 36 1.4
147 36 0.8
148 37 14
149 38 14
150 38 7
151 38 1.4
152 38 1.4
153 38 0.2
154 39 14
155 39 1.4
156 39 0.6
157 40 14
158 40 14
159 40 1.4
160 40 1.4
161 40 1.4
162 40 0.8
163 41 14
164 41 1
165 42 7
166 42 1.4
167 42 1.4
168 42 1.2
169 43 14
170 43 1.4
171 43 1.4
172 43 1.2
173 44 14
174 44 1.4
175 44 1.4
176 44 0.2
177 45 14
178 45 7
179 46 14
180 46 7
181 46 1.4
182 46 1.4
183 46 1.4
184 46 1.4
185 46 0.4
186 47 14
187 47 1.4
188 47 1.4
189 47 1.4
190 47 0.8
191 48 14
192 48 1.4
193 48 1.4
194 48 1.4
195 48 1.4
196 48 0.4
197 49 1.4
198 49 1.4
199 49 1.4
200 49 0.8
201 50 14
202 50 7
203 50 1
204 51 7
205 51 1.4
206 51 1.4
207 51 1.4
208 51 0.8
209 52 14
210 52 1.4
211 52 1.4
212 52 1.4
213 52 0.8
214 53 14
215 53 7
216 53 1
217 54 14
218 54 1.4
219 54 0.6
220 55 7
221 56 14
222 56 7
223 56 1.4
224 56 1.4
225 56 1.4
226 56 0.8
227 57 14
228 58 14
229 58 7
230 59 14
231 59 7
232 59 1.4
233 59 1.4
234 59 0.2
235 60 7
236 60 1.4
237 60 1.4
238 60 1.4
239 60 1.4
240 60 0.4
241 61 14
242 61 1
243 62 14
244 62 1.4
245 62 1.4
246 62 1.2
247 63 7
248 63 1.4
249 63 1.4
250 63 1.2
251 64 14
252 64 14
253 65 7
254 65 1.4
255 65 0.6
256 66 35
257 66 1.4
258 66 0.6
259 67 14
260 67 14
261 67 1.4
262 67 0.6
263 68 7
264 68 1.4
265 68 1.4
266 68 0.2
267 69 7
268 69 1
269 70 7
270 70 1.4
271 70 1.4
272 70 1.2
273 71 1.4
274 71 1.4
275 71 0.2
276 72 1
277 73 1.4
278 73 1.4
279 73 1.4
280 73 1.4
281 73 0.4
282 74 7
283 74 1.4
284 74 1.4
285 74 0.2
286 75 14
287 75 1.4
288 75 1.4
289 75 1.4
290 75 1.4
291 75 0.4
PICKUP_SECTION
NODE_SECTION
40 40

22 22

36 26

21 45

45 35

55 20

33 34

50 50

55 45

26 59

40 66

55 65

35 51

62 35

62 57

62 24

21 36

33 44

 9 56

62 48

66 14

44 13

26 13

11 28

 7 43

17 64

41 46

55 34

35 16

52 26

43 26

31 76

22 53

26 29

50 40

55 50

54 10

60 15

47 66

30 60

30 50

12 17

15 14

16 19

21 48

50 30

51 42

50 15

48 21

12 38

15 56

29 39

54 38

55 57

67 41

10 70

 6 25

65 27

40 60

70 64

64  4

36  6

30 20

20 30

15  5

50 70

57 72

45 42

38 33

50  4

66  8

59  5

35 60

27 24

40 20

40 37
DISTANCE_SECTION
DEPOT_SECTION
0
EOF